c This is QMaxSAT 2017 based on 14.07
c This is Glucose 3.0
c This is MiniSat 2.2.0
c WARNING: for repeatability, setting FPU to use double precision
c card = mrwto, comp = 0, pmodel = 0, narr = 3, mct = 14, verb = 0
cr firstCPXsol 0 0 0
c top = 80229
c |  Number of variables:    144277                                           |
c |  Number of clauses:      2822553                                          |
c |  Weight of hard clauses: 80229                                            |
c |  Number of soft clauses: 546                                              |
c |  Number of unit soft clauses: 546                                         |
c |  Maximum Cardinality (by unit): 240684       (240684      )               |
c last restart ## conflicts  :  33 18977 
o 3630 | cpuTime 0.603733 s
c Sum of weights = 80228
c A number of soft clauses remained = 182
c MRWTO encoding for Pseudo-Boolean Constraints
c sizeMax=3630
c No.0 Divisor=16	generated by pow1
c No.1 Divisor=16	generated by pow1
c No.2 Divisor=16	generated by pow1
c p0= 16	p1= 16	p2= 16	
c number of digits = 4
c linkingVar[0].size = 16, linkingVar[1].size = 16, linkingVar[2].size = 15, linkingVar[3].size = 1, 
c Pseudo-Boolean Constraints: 5139 variables and 64577 clauses
c Sum of weights = 80228
c A number of soft clauses remained = 182
c MRWTO encoding for Pseudo-Boolean Constraints
c sizeMax=3630
c No.0 Divisor=16	generated by pow1
c No.1 Divisor=16	generated by pow1
c No.2 Divisor=16	generated by pow1
c p0= 16	p1= 16	p2= 16	
c number of digits = 4
c linkingVar[0].size = 16, linkingVar[1].size = 16, linkingVar[2].size = 15, linkingVar[3].size = 1, 
c Pseudo-Boolean Constraints: 5139 variables and 64577 clauses
c Sum of weights = 80228
c A number of soft clauses remained = 182
c MRWTO encoding for Pseudo-Boolean Constraints
c sizeMax=3630
c No.0 Divisor=16	generated by pow1
c No.1 Divisor=16	generated by pow1
c No.2 Divisor=16	generated by pow1
c p0= 16	p1= 16	p2= 16	
c number of digits = 4
c linkingVar[0].size = 16, linkingVar[1].size = 16, linkingVar[2].size = 15, linkingVar[3].size = 1, 
c Pseudo-Boolean Constraints: 5139 variables and 64577 clauses
c last restart ## conflicts  :  120 20878 
o 3165 | cpuTime 0.692653 s
c last restart ## conflicts  :  175 20356 
o 2286 | cpuTime 0.802867 s
c last restart ## conflicts  :  214 20314 
o 1983 | cpuTime 0.901509 s
c last restart ## conflicts  :  212 21479 
o 1982 | cpuTime 2.4645 s
c last restart ## conflicts  :  269 21588 
o 1973 | cpuTime 3.29444 s
c last restart ## conflicts  :  156 20080 
o 1887 | cpuTime 3.79878 s
c last restart ## conflicts  :  155 21254 
o 1881 | cpuTime 12.5816 s
c last restart ## conflicts  :  437 20974 
o 1876 | cpuTime 13.5499 s
c last restart ## conflicts  :  79 21317 
o 1858 | cpuTime 14.4285 s
c last restart ## conflicts  :  123 20778 
o 1827 | cpuTime 17.7252 s
c last restart ## conflicts  :  82 20776 
o 1826 | cpuTime 17.7675 s
c last restart ## conflicts  :  71 21393 
o 1801 | cpuTime 19.1488 s
c last restart ## conflicts  :  636 21381 
o 1767 | cpuTime 23.1295 s
c last restart ## conflicts  :  69 21882 
o 1766 | cpuTime 44.2142 s
s OPTIMUM FOUND
cr positiVarArr: [ | 9@1(1->9) | 15@1(2->1) | 86@1(7->2) | 122@1(9->10) | 137@1(10->11) | 153@1(11->13) | 175@1(13->7) | 201@2(1->5) | 253@2(5->1) | 400@3(1->8) | 421@3(3->1) | 437@3(4->3) | 474@3(6->12) | 504@3(8->14) | 550@3(12->4) | 580@3(14->6) | ]
cr the 1-th chain: [ 1->9->10->11->13->7->2->1 ] (#non-depot=6) {#cumul.=7}
cr the 2-th chain: [ 1->5->1 ] (#non-depot=1) {#cumul.=8}
cr the 3-th chain: [ 1->8->14->6->12->4->3->1 ] (#non-depot=6) {#cumul.=14}
c Latest Answer = 0 by 15 loops
c restarts              : 1803
c conflicts             : 263275         (5729 /sec)
c decisions             : 1196573        (0.00 % random) (26040 /sec)
c propagations          : 427695475      (9307618 /sec)
c conflict literals     : 18341636       (26.73 % deleted)
c Memory used           : 344.00 MB
c CPU time              : 45.9511 s
